p cnf 39 196
-1 2 0
-3 -4 2 0
3 1 -2 0
4 1 -2 0
-5 6 0
-7 6 0
-8 6 0
6 -9 0
6 -10 0
6 -11 0
6 -12 0
6 -13 0
6 -14 0
6 -15 0
6 -16 0
6 -17 0
6 -18 0
6 -19 0
6 -20 0
6 -21 0
6 -22 0
6 -23 0
6 -24 0
6 -25 0
6 -26 0
6 -27 0
6 -28 0
6 -29 0
6 -30 0
6 -31 0
6 -32 0
-33 6 -2 0
33 5 7 8 9 10 11 12 13 14 15 16 17 18 19 20 21 22 23 24 25 26 27 28 29 30 31 32 -6 0
5 7 8 9 10 11 12 13 14 15 16 17 18 19 20 21 22 23 24 25 26 27 28 29 30 31 32 2 -6 0
-1 34 0
-5 34 0
-7 34 0
-8 34 0
-9 34 0
-10 34 0
-11 34 0
-12 34 0
-13 34 0
-14 34 0
-15 34 0
-16 34 0
-17 34 0
-18 34 0
-19 34 0
-20 34 0
-21 34 0
-22 34 0
-23 34 0
-24 34 0
-25 34 0
-26 34 0
-27 34 0
-28 34 0
-29 34 0
-30 34 0
-31 34 0
-32 34 0
34 -35 0
3 34 0
4 34 0
33 34 0
35 -6 34 0
1 5 7 8 9 10 11 12 13 14 15 16 17 18 19 20 21 22 23 24 25 26 27 28 29 30 31 32 35 -3 -4 -33 6 -34 0
-5 36 0
-7 36 0
-8 36 0
-9 36 0
-10 36 0
-11 36 0
-12 36 0
-13 36 0
-14 36 0
-15 36 0
-16 36 0
-17 36 0
-18 36 0
-19 36 0
-20 36 0
-21 36 0
-22 36 0
-23 36 0
-24 36 0
-25 36 0
-26 36 0
-27 36 0
-28 36 0
-29 36 0
-30 36 0
-31 36 0
-32 36 0
-33 -2 36 0
33 5 7 8 9 10 11 12 13 14 15 16 17 18 19 20 21 22 23 24 25 26 27 28 29 30 31 32 -36 0
5 7 8 9 10 11 12 13 14 15 16 17 18 19 20 21 22 23 24 25 26 27 28 29 30 31 32 2 -36 0
-35 -34 0
36 -34 0
-5 37 0
-7 37 0
-8 37 0
-9 37 0
-10 37 0
-11 37 0
-12 37 0
-13 37 0
-14 37 0
-15 37 0
-16 37 0
-17 37 0
-18 37 0
-19 37 0
-20 37 0
-21 37 0
-22 37 0
-23 37 0
-24 37 0
-25 37 0
-26 37 0
-27 37 0
-28 37 0
-29 37 0
-30 37 0
-31 37 0
-32 37 0
-33 -1 37 0
33 5 7 8 9 10 11 12 13 14 15 16 17 18 19 20 21 22 23 24 25 26 27 28 29 30 31 32 -37 0
1 5 7 8 9 10 11 12 13 14 15 16 17 18 19 20 21 22 23 24 25 26 27 28 29 30 31 32 -37 0
-3 38 0
-4 38 0
-5 38 0
-7 38 0
-8 38 0
-9 38 0
-10 38 0
-11 38 0
-12 38 0
-13 38 0
-14 38 0
-15 38 0
-16 38 0
-17 38 0
-18 38 0
-19 38 0
-20 38 0
-21 38 0
-22 38 0
-23 38 0
-24 38 0
-25 38 0
-26 38 0
-27 38 0
-28 38 0
-29 38 0
-30 38 0
-31 38 0
-32 38 0
-35 38 0
33 38 0
1 38 0
35 -37 38 0
3 4 5 7 8 9 10 11 12 13 14 15 16 17 18 19 20 21 22 23 24 25 26 27 28 29 30 31 32 35 -33 -1 37 -38 0
-5 39 0
-7 39 0
-8 39 0
-9 39 0
-10 39 0
-11 39 0
-12 39 0
-13 39 0
-14 39 0
-15 39 0
-16 39 0
-17 39 0
-18 39 0
-19 39 0
-20 39 0
-21 39 0
-22 39 0
-23 39 0
-24 39 0
-25 39 0
-26 39 0
-27 39 0
-28 39 0
-29 39 0
-30 39 0
-31 39 0
-32 39 0
-33 -1 39 0
33 5 7 8 9 10 11 12 13 14 15 16 17 18 19 20 21 22 23 24 25 26 27 28 29 30 31 32 -39 0
1 5 7 8 9 10 11 12 13 14 15 16 17 18 19 20 21 22 23 24 25 26 27 28 29 30 31 32 -39 0
-35 -38 0
39 -38 0
c 3 k!0
c 4 k!1
c 1 k!2
c 33 k!3
c 5 k!4
c 7 k!5
c 8 k!6
c 9 k!7
c 10 k!8
c 11 k!9
c 12 k!10
c 13 k!11
c 14 k!12
c 15 k!13
c 16 k!14
c 17 k!15
c 18 k!16
c 19 k!17
c 20 k!18
c 21 k!19
c 22 k!20
c 23 k!21
c 24 k!22
c 25 k!23
c 26 k!24
c 27 k!25
c 28 k!26
c 29 k!27
c 30 k!28
c 31 k!29
c 32 k!30
c 35 k!31
c 6 k!33
c 2 k!32
c 34 k!34
c 36 k!35
c 37 k!36
c 38 k!37
c 39 k!38